sat
(:arith-gcd-calls       1
 :arith-lower           15
 :arith-make-feasible   1
 :arith-max-columns     79
 :arith-max-rows        30
 :arith-patches         1
 :arith-patches-success 1
 :arith-upper           15
 :final-checks          1
 :max-memory            19.47
 :memory                18.78
 :mk-bool-var           30
 :num-allocs            248519
 :num-checks            1
 :rlimit-count          7260
 :time                  0.02
 :total-time            0.09)
